NAME : amtsp.-79160.tour
COMMENT : Length = -79160
COMMENT : Found by LKH [Keld Helsgaun] Mon Apr 15 11:15:45 2024
TYPE : TOUR
DIMENSION : 101
TOUR_SECTION
1
2
3
4
5
6
7
8
9
10
11
12
13
14
15
16
21
22
23
24
25
26
27
84
83
28
29
30
31
32
33
42
43
48
49
50
51
52
53
54
55
56
57
58
59
60
61
62
63
64
47
44
40
39
38
79
78
77
70
69
68
67
66
65
46
73
72
71
76
75
74
45
41
34
35
36
37
80
81
82
85
86
87
88
19
20
17
18
89
90
91
92
93
94
95
96
97
98
99
100
101
-1
EOF
